coords = array2d(1..51, 1..2, [552, 515, 607, 632, 275, 841, 988, 854, 921,
    115, 317, 571, 117, 419, 357, 416, 70, 657, 673, 323, 332, 388,
    89, 877, 513, 839, 938, 550, 623, 506, 884, 244, 26, 883, 292,
    373, 603, 590, 881, 860, 216, 876, 93, 846, 272, 274, 384, 173,
    832, 306, 294, 344, 173, 696, 100, 50, 885, 87, 486, 587, 472,
    539, 601, 387, 402, 744, 671, 358, 176, 865, 477, 974, 606, 30,
    366, 951, 269, 575, 256, 694, 207, 922, 96, 948, 664, 15, 566,
    396, 602, 137, 508, 313, 975, 888, 748, 63, 651, 346, 993, 344,
    224, 856]);

n = 51;

